WARNING: for repeatability, setting FPU to use double precision
============================[ Problem Statistics ]=============================
|                                                                             |
|  Number of variables:           328                                         |
|  Number of clauses:            7199                                         |
|  Parse time:                   0.00 s                                       |
|                                                                             |
c ============================[ Search Statistics ]==============================
c | Conflicts |          ORIGINAL         |          LEARNT          | Progress |
c |           |    Vars  Clauses Literals |    Limit  Clauses Lit/Cl |          |
c ===============================================================================
c Switched to VSIDS.
c Switched to LRB.
c Switched to VSIDS.
c Switched to LRB.
c Switched to VSIDS.
c Switched to LRB.
c Switched to VSIDS.
c Switched to LRB.
c Switched to VSIDS.
c Switched to LRB.
c Switched to VSIDS.
c Switched to LRB.
c Switched to VSIDS.
c Switched to LRB.
CAREFUL: the definition is falsified in conflict 18482321 at DL 29 (has happened 1 times)
c Switched to VSIDS.
c Switched to LRB.
c Switched to VSIDS.
c Switched to LRB.
c Switched to VSIDS.
c Switched to LRB.
c Switched to VSIDS.
c Switched to LRB.
c Switched to VSIDS.
c Switched to LRB.
c Switched to VSIDS.
c Switched to LRB.
c ===============================================================================
restarts                  : 61947
conflicts                 : 38409425       (11076 /sec)
decisions                 : 101319233      (0.00 % random) (29216 /sec)
propagations              : 3689196222     (1063802 /sec)
conflict literals         : 764485671      (35.15 % deleted)

conflicts w/ DIP found    : 22076395       (57.48 % of conflicts)
conflicts w/ dangerous DIP: 7              (0.00 % of conflicts)
conflicts w/ DIP-learning : 1940474        (5.05 % of conflicts)
decisions on ext vars     : 784479         (0.77 % of decisions)
total ext vars            : 330870      
tried delete ext vars     : 322881      
deleted ext vars          : 322881      
max ext vars              : 7989        

Memory used               : 331.00 MB
CPU time                  : 3467.94 s
DIP computation time      : 173.073 s (4.99 % of total time)
ER_sel time               : 33.205 s
ER_add time               : 0.954378 s
ER_delC time              : 0 s
ER_delV time              : 6.80896 s
ER_sub time               : 39.4122 s
ER_stat time              : 0 s

INDETERMINATE
